\ LP format - for model browsing. Use MPS format to capture full model detail.
Maximize
obj:   x[5] + x[1] + x[6] + x[2] + x[8] + x[4] + x[9] + x[11] + x[13] + x[14]
   + x[7] + x[15] + x[16] + x[10] + x[12] + x[17] + x[18] + x[19] + x[21]
   + x[22] + x[23] + x[24] + x[25] + x[3] + x[27] + x[28] + x[29] + x[30]
   + x[31] + x[32] + x[33] + x[34] + x[35] + x[36] + x[20] + x[37] + x[38]
   + x[39] + x[26] + x[40] + x[41] + x[42] + x[43] + x[44] + x[45] + x[46]
   + x[47] + x[48] + x[49] + x[50] + x[51] + x[52] + x[53] + x[54] + x[55]
   + x[56] + x[57] + x[58] + x[59] + x[60] + x[61] + x[62] + x[63] + x[64]
   + x[65] + x[66] + x[67] + x[68] + x[69] + x[70] + x[71] + x[72] + x[73]
   + x[74] + x[75] + x[76] + x[77] + x[78] + x[79] + x[80] + x[81] + x[82]
   + x[83] + x[84] + x[85] + x[86] + x[87] + x[88] + x[89] + x[90] + x[91]
   + x[92] + x[93] + x[94] + x[95] + x[96] + x[97] + x[98] + x[99] + x[100]
   + x[101] + x[102] + x[103] + x[104] + x[105] + x[106] + x[107] + x[108]
   + x[109] + x[110] + x[111] + x[112] + x[113] + x[114] + x[115] + x[116]
   + x[117] + x[118] + x[119] + x[120] + x[121] + x[122] + x[123] + x[124]
   + x[125]
Subject To
 nod5: 10 x[5] + x[1] + x[13] + x[19] + x[30] + x[35] + x[65] + x[77]
   + x[82] + x[84] + x[92] + x[118] + x[121] <= 10
 nod1: x[5] + 7 x[1] + x[29] + x[44] + x[53] + x[79] + x[80] + x[113]
   + x[120] + x[123] <= 7
 nod6: 9 x[6] + x[2] + x[9] + x[27] + x[38] + x[42] + x[56] + x[67] + x[69]
   + x[75] + x[82] + x[109] + x[120] + x[123] <= 9
 nod2: x[6] + 7 x[2] + x[11] + x[17] + x[27] + x[32] + x[40] + x[46]
   + x[79] + x[105] <= 7
 nod8: 9 x[8] + x[4] + x[15] + x[19] + x[21] + x[42] + x[57] + x[58]
   + x[62] + x[65] + x[103] + x[105] + x[110] <= 9
 nod4: x[8] + 5 x[4] + x[9] + x[38] + x[69] + x[72] + x[99] + x[105]
   + x[113] <= 5
 nod9: x[6] + x[4] + 9 x[9] + x[14] + x[28] + x[49] + x[52] + x[61] + x[66]
   + x[73] + x[77] + x[84] + x[91] + x[96] + x[100] + x[101] + x[111] <= 9
 nod11: x[2] + 10 x[11] + x[19] + x[32] + x[63] + x[67] + x[71] + x[77]
   + x[88] + x[96] + x[103] + x[106] + x[121] + x[122] <= 10
 nod13: x[5] + 10 x[13] + x[14] + x[23] + x[37] + x[46] + x[83] + x[84]
   + x[96] + x[99] + x[101] + x[116] + x[119] <= 10
 nod14: x[9] + x[13] + 11 x[14] + x[7] + x[52] + x[57] + x[61] + x[66]
   + x[76] + x[79] + x[80] + x[86] + x[87] + x[100] + x[103] <= 11
 nod7: x[14] + 7 x[7] + x[21] + x[41] + x[42] + x[51] + x[73] + x[77]
   + x[98] <= 7
 nod15: x[8] + 9 x[15] + x[30] + x[35] + x[55] + x[66] + x[69] + x[92]
   + x[93] + x[116] <= 9
 nod16: 9 x[16] + x[10] + x[12] + x[35] + x[41] + x[45] + x[59] + x[62]
   + x[78] + x[87] + x[98] + x[104] + x[105] + x[106] + x[114] <= 9
 nod10: x[16] + 7 x[10] + x[25] + x[31] + x[33] + x[46] + x[62] + x[67]
   + x[81] + x[87] + x[110] + x[118] <= 7
 nod12: x[16] + 8 x[12] + x[18] + x[34] + x[35] + x[42] + x[46] + x[47]
   + x[52] + x[72] + x[73] + x[100] + x[103] <= 8
 nod17: x[2] + 10 x[17] + x[22] + x[28] + x[38] + x[51] + x[52] + x[58]
   + x[61] + x[84] + x[94] + x[98] + x[99] + x[102] + x[112] + x[113]
   + x[122] <= 10
 nod18: x[12] + 7 x[18] + x[32] + x[66] + x[75] + x[84] + x[90] + x[114]
   + x[123] <= 7
 nod19: x[5] + x[8] + x[11] + 7 x[19] + x[28] + x[42] + x[48] + x[66]
   + x[98] + x[113] + x[114] <= 7
 nod21: x[8] + x[7] + 4 x[21] + x[24] + x[65] + x[74] + x[84] + x[92] <= 4
 nod22: x[17] + 9 x[22] + x[37] + x[41] + x[50] + x[54] + x[67] + x[68]
   + x[82] + x[85] + x[86] + x[90] + x[91] + x[120] <= 9
 nod23: x[13] + 6 x[23] + x[50] + x[71] + x[98] + x[110] + x[113] + x[115]
   + x[123] <= 6
 nod24: x[21] + 9 x[24] + x[29] + x[35] + x[45] + x[48] + x[50] + x[62]
   + x[63] + x[73] + x[76] + x[84] + x[88] + x[91] + x[112] + x[120] <= 9
 nod25: x[10] + 7 x[25] + x[3] + x[42] + x[46] + x[55] + x[69] + x[74]
   + x[106] + x[111] <= 7
 nod3: x[25] + 8 x[3] + x[35] + x[38] + x[41] + x[56] + x[62] + x[63]
   + x[88] + x[112] + x[115] + x[116] <= 8
 nod27: x[6] + x[2] + 9 x[27] + x[31] + x[36] + x[51] + x[70] + x[92]
   + x[98] + x[99] + x[103] + x[106] + x[116] + x[120] + x[124] <= 9
 nod28: x[9] + x[17] + x[19] + 7 x[28] + x[30] + x[52] + x[53] + x[66]
   + x[70] + x[74] + x[81] <= 7
 nod29: x[1] + x[24] + 6 x[29] + x[43] + x[54] + x[63] + x[64] + x[69]
   + x[118] <= 6
 nod30: x[5] + x[15] + x[28] + 7 x[30] + x[47] + x[53] + x[57] + x[63]
   + x[76] <= 7
 nod31: x[10] + x[27] + 8 x[31] + x[61] + x[67] + x[70] + x[74] + x[85]
   + x[91] + x[115] + x[119] <= 8
 nod32: x[2] + x[11] + x[18] + 12 x[32] + x[34] + x[50] + x[62] + x[70]
   + x[76] + x[85] + x[86] + x[98] + x[101] + x[103] + x[105] + x[112]
   <= 12
 nod33: x[10] + 5 x[33] + x[43] + x[63] + x[86] + x[93] + x[121] + x[124]
   <= 5
 nod34: x[12] + x[32] + 4 x[34] + x[44] + x[70] + x[103] + x[125] <= 4
 nod35: x[5] + x[15] + x[16] + x[12] + x[24] + x[3] + 11 x[35] + x[36]
   + x[41] + x[43] + x[51] + x[56] + x[63] + x[67] + x[68] + x[76] + x[96]
   + x[117] <= 11
 nod36: x[27] + x[35] + 7 x[36] + x[20] + x[46] + x[47] + x[57] + x[61]
   + x[65] + x[91] + x[102] + x[103] <= 7
 nod20: x[36] + 5 x[20] + x[47] + x[81] + x[85] + x[97] + x[102] + x[124]
   <= 5
 nod37: x[13] + x[22] + 9 x[37] + x[40] + x[49] + x[59] + x[62] + x[65]
   + x[66] + x[67] + x[77] + x[82] + x[88] <= 9
 nod38: x[6] + x[4] + x[17] + x[3] + 7 x[38] + x[56] + x[63] + x[88]
   + x[94] + x[103] + x[116] <= 7
 nod39: 5 x[39] + x[26] + x[63] + x[72] + x[74] + x[79] + x[94] + x[105]
   <= 5
 nod26: x[39] + 8 x[26] + x[46] + x[57] + x[65] + x[72] + x[82] + x[88]
   + x[93] + x[116] + x[117] <= 8
 nod40: x[2] + x[37] + 8 x[40] + x[71] + x[72] + x[76] + x[82] + x[85]
   + x[92] + x[111] + x[119] + x[124] <= 8
 nod41: x[7] + x[16] + x[22] + x[3] + x[35] + 7 x[41] + x[50] + x[51]
   + x[80] + x[89] + x[108] + x[110] + x[122] <= 7
 nod42: x[6] + x[8] + x[7] + x[12] + x[19] + x[25] + 9 x[42] + x[51]
   + x[59] + x[64] + x[84] + x[88] + x[102] + x[106] + x[107] + x[108]
   + x[122] <= 9
 nod43: x[29] + x[33] + x[35] + 6 x[43] + x[49] + x[55] + x[57] + x[68]
   + x[78] <= 6
 nod44: x[1] + x[34] + 6 x[44] + x[53] + x[56] + x[87] + x[90] + x[97]
   + x[120] + x[122] <= 6
 nod45: x[16] + x[24] + 7 x[45] + x[62] + x[64] + x[67] + x[83] + x[89]
   + x[93] + x[107] + x[122] <= 7
 nod46: x[2] + x[13] + x[10] + x[12] + x[25] + x[36] + x[26] + 8 x[46]
   + x[47] + x[91] + x[106] + x[111] <= 8
 nod47: x[12] + x[30] + x[36] + x[20] + x[46] + 9 x[47] + x[50] + x[61]
   + x[67] + x[99] + x[103] + x[105] + x[115] + x[120] + x[124] <= 9
 nod48: x[19] + x[24] + 9 x[48] + x[51] + x[52] + x[54] + x[65] + x[73]
   + x[86] + x[93] + x[100] + x[111] <= 9
 nod49: x[9] + x[37] + x[43] + 9 x[49] + x[52] + x[55] + x[58] + x[78]
   + x[84] + x[98] + x[99] + x[104] + x[107] + x[110] + x[114] + x[125]
   <= 9
 nod50: x[22] + x[23] + x[24] + x[32] + x[41] + x[47] + 10 x[50] + x[55]
   + x[57] + x[73] + x[83] + x[91] + x[110] + x[117] <= 10
 nod51: x[7] + x[17] + x[27] + x[35] + x[41] + x[42] + x[48] + 11 x[51]
   + x[59] + x[63] + x[73] + x[82] + x[89] + x[106] + x[107] + x[108]
   + x[114] + x[117] + x[122] <= 11
 nod52: x[9] + x[14] + x[12] + x[17] + x[28] + x[48] + x[49] + 10 x[52]
   + x[58] + x[61] + x[63] + x[80] + x[92] + x[102] + x[111] + x[118]
   + x[121] <= 10
 nod53: x[1] + x[28] + x[30] + x[44] + 7 x[53] + x[62] + x[68] + x[84]
   + x[90] + x[91] + x[111] + x[113] + x[115] + x[122] <= 7
 nod54: x[22] + x[29] + x[48] + 7 x[54] + x[55] + x[62] + x[83] + x[97]
   + x[112] + x[118] <= 7
 nod55: x[15] + x[25] + x[43] + x[49] + x[50] + x[54] + 8 x[55] + x[58]
   + x[62] + x[64] + x[77] + x[97] + x[119] + x[124] <= 8
 nod56: x[6] + x[3] + x[35] + x[38] + x[44] + 10 x[56] + x[60] + x[62]
   + x[71] + x[84] + x[99] + x[105] + x[118] <= 10
 nod57: x[8] + x[14] + x[30] + x[36] + x[26] + x[43] + x[50] + 11 x[57]
   + x[59] + x[60] + x[64] + x[84] + x[114] <= 11
 nod58: x[8] + x[17] + x[49] + x[52] + x[55] + 8 x[58] + x[61] + x[64]
   + x[65] + x[77] + x[82] + x[97] + x[100] + x[101] + x[108] + x[112]
   + x[119] <= 8
 nod59: x[16] + x[37] + x[42] + x[51] + x[57] + 7 x[59] + x[69] + x[74]
   + x[93] + x[103] + x[122] <= 7
 nod60: x[56] + x[57] + 4 x[60] + x[77] + x[95] + x[110] + x[125] <= 4
 nod61: x[9] + x[14] + x[17] + x[31] + x[36] + x[47] + x[52] + x[58]
   + 8 x[61] + x[77] + x[93] + x[95] + x[96] + x[111] <= 8
 nod62: x[8] + x[16] + x[10] + x[24] + x[3] + x[32] + x[37] + x[45] + x[53]
   + x[54] + x[55] + x[56] + 13 x[62] + x[66] + x[75] + x[89] + x[90]
   + x[92] + x[111] + x[125] <= 13
 nod63: x[11] + x[24] + x[3] + x[29] + x[30] + x[33] + x[35] + x[38]
   + x[39] + x[51] + x[52] + 10 x[63] + x[69] + x[84] + x[123] + x[124]
   <= 10
 nod64: x[29] + x[42] + x[45] + x[55] + x[57] + x[58] + 10 x[64] + x[66]
   + x[77] + x[91] + x[106] + x[108] + x[115] + x[119] + x[121] <= 10
 nod65: x[5] + x[8] + x[21] + x[36] + x[37] + x[26] + x[48] + x[58]
   + 10 x[65] + x[69] + x[75] + x[85] + x[103] <= 10
 nod66: x[9] + x[14] + x[15] + x[18] + x[19] + x[28] + x[37] + x[62]
   + x[64] + 10 x[66] + x[74] + x[75] + x[101] + x[102] + x[108] + x[112]
   + x[122] <= 10
 nod67: x[6] + x[11] + x[10] + x[22] + x[31] + x[35] + x[37] + x[45]
   + x[47] + 8 x[67] + x[69] + x[116] <= 8
 nod68: x[22] + x[35] + x[43] + x[53] + 5 x[68] + x[80] + x[86] + x[91]
   + x[97] + x[116] + x[119] <= 5
 nod69: x[6] + x[4] + x[15] + x[25] + x[29] + x[59] + x[63] + x[65] + x[67]
   + 12 x[69] + x[77] + x[78] + x[79] + x[83] + x[96] + x[97] + x[99]
   + x[103] + x[109] <= 12
 nod70: x[27] + x[28] + x[31] + x[32] + x[34] + 6 x[70] + x[90] + x[93]
   + x[94] + x[106] + x[118] <= 6
 nod71: x[11] + x[23] + x[40] + x[56] + 8 x[71] + x[87] + x[94] + x[98]
   + x[110] + x[113] + x[119] <= 8
 nod72: x[4] + x[12] + x[39] + x[26] + x[40] + 7 x[72] + x[73] + x[78]
   + x[87] + x[91] + x[107] + x[113] + x[124] <= 7
 nod73: x[9] + x[7] + x[12] + x[24] + x[48] + x[50] + x[51] + x[72]
   + 8 x[73] + x[92] + x[97] + x[105] <= 8
 nod74: x[21] + x[25] + x[28] + x[31] + x[39] + x[59] + x[66] + 10 x[74]
   + x[79] + x[82] + x[89] + x[92] + x[104] + x[107] <= 10
 nod75: x[6] + x[18] + x[62] + x[65] + x[66] + 6 x[75] + x[96] + x[98]
   + x[109] <= 6
 nod76: x[14] + x[24] + x[30] + x[32] + x[35] + x[40] + 10 x[76] + x[80]
   + x[83] + x[87] + x[94] + x[99] + x[104] + x[110] <= 10
 nod77: x[5] + x[9] + x[11] + x[7] + x[37] + x[55] + x[58] + x[60] + x[61]
   + x[64] + x[69] + 10 x[77] + x[84] + x[95] + x[96] + x[97] + x[101]
   + x[106] + x[107] + x[110] <= 10
 nod78: x[16] + x[43] + x[49] + x[69] + x[72] + 8 x[78] + x[82] + x[84]
   + x[91] + x[110] + x[112] + x[115] <= 8
 nod79: x[1] + x[2] + x[14] + x[39] + x[69] + x[74] + 8 x[79] + x[85]
   + x[89] + x[111] <= 8
 nod80: x[1] + x[14] + x[41] + x[52] + x[68] + x[76] + 10 x[80] + x[82]
   + x[91] + x[97] + x[105] + x[106] + x[114] + x[117] + x[125] <= 10
 nod81: x[10] + x[28] + x[20] + 7 x[81] + x[82] + x[86] + x[91] + x[94]
   + x[123] <= 7
 nod82: x[5] + x[6] + x[22] + x[37] + x[26] + x[40] + x[51] + x[58] + x[74]
   + x[78] + x[80] + x[81] + 11 x[82] + x[86] + x[106] + x[117] <= 11
 nod83: x[13] + x[45] + x[50] + x[54] + x[69] + x[76] + 10 x[83] + x[93]
   + x[98] + x[104] + x[105] + x[108] + x[114] + x[123] <= 10
 nod84: x[5] + x[9] + x[13] + x[17] + x[18] + x[21] + x[24] + x[42] + x[49]
   + x[53] + x[56] + x[57] + x[63] + x[77] + x[78] + 15 x[84] + x[89]
   + x[95] + x[97] + x[101] + x[102] + x[110] + x[116] + x[122] <= 15
 nod85: x[22] + x[31] + x[32] + x[20] + x[40] + x[65] + x[79] + 10 x[85]
   + x[100] + x[104] + x[125] <= 10
 nod86: x[14] + x[22] + x[32] + x[33] + x[48] + x[68] + x[81] + x[82]
   + 8 x[86] + x[92] + x[102] <= 8
 nod87: x[14] + x[16] + x[10] + x[44] + x[71] + x[72] + x[76] + 5 x[87]
   <= 5
 nod88: x[11] + x[24] + x[3] + x[37] + x[38] + x[26] + x[42] + 8 x[88]
   + x[91] + x[105] + x[106] + x[107] + x[123] <= 8
 nod89: x[41] + x[45] + x[51] + x[62] + x[74] + x[79] + x[84] + 7 x[89]
   + x[98] + x[99] + x[110] + x[115] + x[122] <= 7
 nod90: x[18] + x[22] + x[44] + x[53] + x[62] + x[70] + 5 x[90] + x[94]
   + x[97] <= 5
 nod91: x[9] + x[22] + x[24] + x[31] + x[36] + x[46] + x[50] + x[53]
   + x[64] + x[68] + x[72] + x[78] + x[80] + x[81] + x[88] + 12 x[91]
   + x[93] + x[96] + x[120] <= 12
 nod92: x[5] + x[15] + x[21] + x[27] + x[40] + x[52] + x[62] + x[73]
   + x[74] + x[86] + 12 x[92] + x[95] + x[115] + x[123] <= 12
 nod93: x[15] + x[33] + x[26] + x[45] + x[48] + x[59] + x[61] + x[70]
   + x[83] + x[91] + 12 x[93] + x[97] + x[106] + x[115] + x[118] + x[121]
   + x[123] <= 12
 nod94: x[17] + x[38] + x[39] + x[70] + x[71] + x[76] + x[81] + x[90]
   + 8 x[94] + x[95] + x[114] <= 8
 nod95: x[60] + x[61] + x[77] + x[84] + x[92] + x[94] + 5 x[95] <= 5
 nod96: x[9] + x[11] + x[13] + x[35] + x[61] + x[69] + x[75] + x[77]
   + x[91] + 8 x[96] + x[97] + x[113] + x[117] + x[122] <= 8
 nod97: x[20] + x[44] + x[54] + x[55] + x[58] + x[68] + x[69] + x[73]
   + x[77] + x[80] + x[84] + x[90] + x[93] + x[96] + 9 x[97] + x[101]
   + x[110] <= 9
 nod98: x[7] + x[16] + x[17] + x[19] + x[23] + x[27] + x[32] + x[49]
   + x[71] + x[75] + x[83] + x[89] + 12 x[98] + x[111] + x[114] <= 12
 nod99: x[4] + x[13] + x[17] + x[27] + x[47] + x[49] + x[56] + x[69]
   + x[76] + x[89] + 9 x[99] + x[120] + x[125] <= 9
 nod100: x[9] + x[14] + x[12] + x[48] + x[58] + x[85] + 7 x[100] + x[106]
   + x[115] <= 7
 nod101: x[9] + x[13] + x[32] + x[58] + x[66] + x[77] + x[84] + x[97]
   + 5 x[101] + x[122] <= 5
 nod102: x[17] + x[36] + x[20] + x[42] + x[52] + x[66] + x[84] + x[86]
   + 7 x[102] + x[104] + x[124] <= 7
 nod103: x[8] + x[11] + x[14] + x[12] + x[27] + x[32] + x[34] + x[36]
   + x[38] + x[47] + x[59] + x[65] + x[69] + 9 x[103] + x[115] + x[117]
   <= 9
 nod104: x[16] + x[49] + x[74] + x[76] + x[83] + x[85] + x[102] + 7 x[104]
   + x[105] + x[122] <= 7
 nod105: x[2] + x[8] + x[4] + x[16] + x[32] + x[39] + x[47] + x[56] + x[73]
   + x[80] + x[83] + x[88] + x[104] + 10 x[105] + x[124] + x[125] <= 10
 nod106: x[11] + x[16] + x[25] + x[27] + x[42] + x[46] + x[51] + x[64]
   + x[70] + x[77] + x[80] + x[82] + x[88] + x[93] + x[100] + 8 x[106]
   <= 8
 nod107: x[42] + x[45] + x[49] + x[51] + x[72] + x[74] + x[77] + x[88]
   + 8 x[107] + x[116] + x[122] <= 8
 nod108: x[41] + x[42] + x[51] + x[58] + x[64] + x[66] + x[83] + 6 x[108]
   + x[110] + x[113] + x[119] + x[122] <= 6
 nod109: x[6] + x[69] + x[75] + 3 x[109] + x[115] + x[118] <= 3
 nod110: x[8] + x[10] + x[23] + x[41] + x[49] + x[50] + x[60] + x[71]
   + x[76] + x[77] + x[78] + x[84] + x[89] + x[97] + x[108] + 11 x[110]
   + x[115] + x[118] + x[124] + x[125] <= 11
 nod111: x[9] + x[25] + x[40] + x[46] + x[48] + x[52] + x[53] + x[61]
   + x[62] + x[79] + x[98] + 7 x[111] <= 7
 nod112: x[17] + x[24] + x[3] + x[32] + x[54] + x[58] + x[66] + x[78]
   + 8 x[112] + x[113] <= 8
 nod113: x[1] + x[4] + x[17] + x[19] + x[23] + x[53] + x[71] + x[72]
   + x[96] + x[108] + x[112] + 8 x[113] + x[121] <= 8
 nod114: x[16] + x[18] + x[19] + x[49] + x[51] + x[57] + x[80] + x[83]
   + x[94] + x[98] + 11 x[114] + x[115] + x[119] <= 11
 nod115: x[23] + x[3] + x[31] + x[47] + x[53] + x[64] + x[78] + x[89]
   + x[92] + x[93] + x[100] + x[103] + x[109] + x[110] + x[114] + 13 x[115]
   + x[118] <= 13
 nod116: x[13] + x[15] + x[3] + x[27] + x[38] + x[26] + x[67] + x[68]
   + x[84] + x[107] + 9 x[116] + x[119] + x[123] <= 9
 nod117: x[35] + x[26] + x[50] + x[51] + x[80] + x[82] + x[96] + x[103]
   + 8 x[117] + x[119] + x[124] <= 8
 nod118: x[5] + x[10] + x[29] + x[52] + x[54] + x[56] + x[70] + x[93]
   + x[109] + x[110] + x[115] + 8 x[118] + x[119] + x[121] <= 8
 nod119: x[13] + x[31] + x[40] + x[55] + x[58] + x[64] + x[68] + x[71]
   + x[108] + x[114] + x[116] + x[117] + x[118] + 9 x[119] <= 9
 nod120: x[1] + x[6] + x[22] + x[24] + x[27] + x[44] + x[47] + x[91]
   + x[99] + 5 x[120] <= 5
 nod121: x[5] + x[11] + x[33] + x[52] + x[64] + x[93] + x[113] + x[118]
   + 6 x[121] <= 6
 nod122: x[11] + x[17] + x[41] + x[42] + x[44] + x[45] + x[51] + x[53]
   + x[59] + x[66] + x[84] + x[89] + x[96] + x[101] + x[104] + x[107]
   + x[108] + 10 x[122] + x[124] <= 10
 nod123: x[1] + x[6] + x[18] + x[23] + x[63] + x[81] + x[83] + x[88]
   + x[92] + x[93] + x[116] + 10 x[123] <= 10
 nod124: x[27] + x[33] + x[20] + x[40] + x[47] + x[55] + x[63] + x[72]
   + x[102] + x[105] + x[110] + x[117] + x[122] + 9 x[124] <= 9
 nod125: x[34] + x[49] + x[60] + x[62] + x[80] + x[85] + x[99] + x[105]
   + x[110] + 6 x[125] <= 6
Bounds
Binaries
 x[5] x[1] x[6] x[2] x[8] x[4] x[9] x[11] x[13] x[14] x[7] x[15] x[16]
 x[10] x[12] x[17] x[18] x[19] x[21] x[22] x[23] x[24] x[25] x[3] x[27]
 x[28] x[29] x[30] x[31] x[32] x[33] x[34] x[35] x[36] x[20] x[37] x[38]
 x[39] x[26] x[40] x[41] x[42] x[43] x[44] x[45] x[46] x[47] x[48] x[49]
 x[50] x[51] x[52] x[53] x[54] x[55] x[56] x[57] x[58] x[59] x[60] x[61]
 x[62] x[63] x[64] x[65] x[66] x[67] x[68] x[69] x[70] x[71] x[72] x[73]
 x[74] x[75] x[76] x[77] x[78] x[79] x[80] x[81] x[82] x[83] x[84] x[85]
 x[86] x[87] x[88] x[89] x[90] x[91] x[92] x[93] x[94] x[95] x[96] x[97]
 x[98] x[99] x[100] x[101] x[102] x[103] x[104] x[105] x[106] x[107] x[108]
 x[109] x[110] x[111] x[112] x[113] x[114] x[115] x[116] x[117] x[118]
 x[119] x[120] x[121] x[122] x[123] x[124] x[125]
End
